p cnf 13 49
-8 -10 12 0
5 7 12 0
-2 -12 13 0
-9 -10 -12 0
-2 -12 -13 0
2 -4 -12 0
-7 -12 -13 0
-7 -11 -12 0
-9 10 -13 0
-5 6 9 0
-2 11 12 0
2 4 -5 0
1 -4 -5 0
-3 -4 5 0
4 5 12 0
4 5 -8 0
-1 -5 -11 0
4 -10 12 0
-2 4 11 0
-2 4 -7 0
4 -9 -10 0
7 -12 -13 0
-4 -5 -10 0
5 8 -12 0
3 6 13 0
5 8 9 0
-1 -3 -10 0
1 8 10 0
-5 -9 -12 0
-5 -9 12 0
-1 -10 12 0
4 9 -12 0
-7 9 13 0
6 -7 13 0
-3 4 -8 0
6 -9 -12 0
1 -9 -13 0
5 -6 -9 0
-3 -5 12 0
-4 10 13 0
-4 7 13 0
1 5 -10 0
2 -6 11 0
-7 -10 -13 0
2 4 7 0
-1 -3 9 0
-3 -10 11 0
4 8 11 0
4 -7 -10 0
